unsat
(:cnf-encoding-aux-vars   154
 :eliminated-applications 3
 :eliminated-vars         157
 :max-memory              19.95
 :memory                  18.93
 :nlsat-conflicts         5
 :nlsat-decisions         7
 :nlsat-learned-added     4
 :nlsat-propagations      25
 :num-allocs              33765
 :rlimit-count            129035
 :time                    0.04
 :total-time              0.06)
